p cnf 7230 17
-3484 -3498 -3542 3995 -3997 -4003 0
3997 -4001 0
-1652 -3997 4000 0
3484 -3995 0
-1650 -3474 3998 0
1650 -3999 0
-4000 4001 0
-3998 3999 0
1652 -4001 0
3474 -3999 0
-3476 3997 0
3996 -3997 0
3476 -3996 0
3478 -4003 0
-3478 4003 0
-3994 3995 0
3994 -3995 0
